c 
c G(k,n,p) graph
c graph gen seed     : 32213
c number of vertices : 80
c max number of edges: 1600
c number of classes  : 2
c edge density       : 0.200000
c edge probability   : 0.400000
c data structure     : sparse
c
c           Graph Stats
c number of vertices  : 80
c nonisolated vertices: 80
c number of edges     : 630
c edge density        : 0.199367
c max degree          : 25
c avg degree          : 15.75
c min degree          : 8
p col 80 630
e 1 72
e 1 66
e 1 61
e 1 60
e 1 57
e 1 55
e 1 51
e 1 41
e 1 39
e 1 38
e 1 29
e 1 21
e 1 15
e 1 10
e 2 80
e 2 77
e 2 70
e 2 69
e 2 67
e 2 42
e 2 37
e 2 36
e 2 20
e 2 19
e 2 14
e 2 4
e 2 3
e 3 79
e 3 78
e 3 76
e 3 65
e 3 60
e 3 54
e 3 38
e 3 28
e 3 15
e 3 6
e 4 79
e 4 72
e 4 66
e 4 64
e 4 57
e 4 55
e 4 54
e 4 51
e 4 44
e 4 40
e 4 39
e 4 35
e 4 31
e 4 30
e 4 27
e 4 26
e 4 25
e 4 21
e 4 15
e 5 76
e 5 73
e 5 64
e 5 60
e 5 57
e 5 51
e 5 44
e 5 40
e 5 35
e 5 31
e 5 30
e 5 29
e 5 27
e 5 10
e 5 6
e 6 75
e 6 70
e 6 67
e 6 63
e 6 62
e 6 59
e 6 58
e 6 52
e 6 43
e 6 22
e 6 20
e 6 18
e 6 16
e 6 14
e 6 8
e 6 7
e 7 78
e 7 60
e 7 51
e 7 44
e 7 41
e 7 40
e 7 32
e 7 31
e 7 28
e 7 27
e 7 21
e 8 76
e 8 73
e 8 68
e 8 65
e 8 60
e 8 54
e 8 53
e 8 51
e 8 46
e 8 32
e 8 31
e 8 29
e 8 27
e 8 26
e 8 15
e 9 75
e 9 74
e 9 62
e 9 58
e 9 56
e 9 50
e 9 48
e 9 45
e 9 43
e 9 36
e 9 22
e 9 19
e 9 16
e 9 13
e 10 80
e 10 75
e 10 71
e 10 70
e 10 56
e 10 50
e 10 49
e 10 48
e 10 47
e 10 43
e 10 20
e 10 19
e 10 14
e 10 13
e 11 77
e 11 67
e 11 62
e 11 56
e 11 52
e 11 45
e 11 43
e 11 33
e 11 23
e 11 19
e 11 17
e 11 14
e 11 13
e 11 12
e 12 64
e 12 61
e 12 60
e 12 57
e 12 55
e 12 51
e 12 46
e 12 44
e 12 38
e 12 30
e 12 29
e 12 28
e 12 21
e 13 73
e 13 65
e 13 54
e 13 44
e 13 31
e 14 78
e 14 76
e 14 66
e 14 64
e 14 60
e 14 57
e 14 55
e 14 46
e 14 32
e 14 30
e 14 28
e 14 26
e 14 15
e 15 80
e 15 75
e 15 70
e 15 69
e 15 63
e 15 62
e 15 58
e 15 52
e 15 50
e 15 49
e 15 45
e 15 43
e 15 42
e 15 37
e 15 34
e 15 33
e 15 23
e 15 19
e 15 16
e 16 79
e 16 78
e 16 76
e 16 72
e 16 66
e 16 54
e 16 53
e 16 51
e 16 46
e 16 44
e 16 31
e 16 27
e 16 26
e 16 25
e 17 78
e 17 76
e 17 73
e 17 72
e 17 68
e 17 64
e 17 61
e 17 55
e 17 53
e 17 44
e 17 41
e 17 35
e 17 25
e 18 73
e 18 68
e 18 66
e 18 61
e 18 60
e 18 53
e 18 51
e 18 41
e 18 35
e 18 32
e 18 31
e 18 21
e 19 79
e 19 78
e 19 72
e 19 68
e 19 65
e 19 57
e 19 54
e 19 53
e 19 46
e 19 44
e 19 32
e 19 28
e 19 27
e 19 21
e 20 78
e 20 72
e 20 66
e 20 57
e 20 53
e 20 51
e 20 39
e 20 38
e 20 32
e 20 30
e 20 29
e 20 28
e 20 27
e 20 26
e 20 21
e 21 77
e 21 75
e 21 70
e 21 69
e 21 67
e 21 63
e 21 59
e 21 56
e 21 50
e 21 47
e 21 45
e 21 42
e 21 37
e 21 36
e 21 34
e 21 33
e 21 24
e 21 22
e 22 79
e 22 76
e 22 73
e 22 72
e 22 68
e 22 66
e 22 64
e 22 60
e 22 55
e 22 54
e 22 53
e 22 41
e 22 38
e 22 32
e 22 30
e 22 29
e 23 78
e 23 73
e 23 72
e 23 68
e 23 64
e 23 57
e 23 54
e 23 39
e 23 35
e 23 30
e 23 29
e 23 28
e 24 68
e 24 65
e 24 54
e 24 51
e 24 39
e 24 27
e 24 26
e 24 25
e 25 75
e 25 74
e 25 62
e 25 49
e 25 43
e 25 36
e 25 34
e 25 33
e 26 71
e 26 63
e 26 59
e 26 56
e 26 43
e 26 34
e 27 80
e 27 77
e 27 74
e 27 71
e 27 70
e 27 62
e 27 56
e 27 52
e 27 50
e 27 47
e 27 43
e 27 42
e 27 33
e 28 80
e 28 74
e 28 63
e 28 49
e 28 45
e 28 37
e 28 36
e 28 34
e 29 75
e 29 74
e 29 71
e 29 69
e 29 62
e 29 59
e 29 58
e 29 47
e 29 43
e 29 37
e 30 80
e 30 62
e 30 59
e 30 56
e 30 42
e 30 37
e 30 36
e 30 34
e 30 33
e 31 80
e 31 77
e 31 69
e 31 63
e 31 62
e 31 58
e 31 49
e 31 48
e 31 47
e 31 45
e 31 37
e 31 33
e 32 80
e 32 67
e 32 63
e 32 59
e 32 58
e 32 52
e 32 49
e 32 43
e 32 42
e 32 34
e 32 33
e 33 79
e 33 76
e 33 73
e 33 68
e 33 64
e 33 61
e 33 57
e 33 54
e 33 53
e 33 46
e 34 73
e 34 66
e 34 61
e 34 60
e 34 51
e 34 46
e 34 44
e 34 40
e 34 39
e 34 35
e 35 77
e 35 69
e 35 67
e 35 63
e 35 59
e 35 58
e 35 45
e 35 42
e 35 37
e 36 72
e 36 66
e 36 65
e 36 64
e 36 60
e 36 51
e 36 46
e 36 41
e 36 39
e 37 79
e 37 68
e 37 66
e 37 65
e 37 55
e 37 46
e 37 44
e 37 40
e 37 39
e 38 74
e 38 71
e 38 69
e 38 63
e 38 59
e 38 58
e 38 52
e 39 77
e 39 74
e 39 71
e 39 70
e 39 69
e 39 58
e 39 52
e 39 48
e 39 47
e 39 45
e 40 80
e 40 70
e 40 69
e 40 62
e 40 56
e 40 50
e 40 48
e 40 47
e 40 43
e 41 77
e 41 75
e 41 71
e 41 69
e 41 67
e 41 50
e 41 45
e 41 42
e 42 73
e 42 60
e 42 54
e 43 76
e 43 68
e 43 54
e 43 53
e 44 80
e 44 77
e 44 74
e 44 71
e 44 59
e 44 58
e 44 56
e 44 52
e 44 50
e 44 49
e 44 47
e 45 79
e 45 76
e 45 68
e 45 64
e 45 57
e 45 55
e 45 54
e 45 51
e 46 80
e 46 77
e 46 75
e 46 71
e 46 69
e 46 67
e 46 56
e 46 50
e 46 49
e 47 79
e 47 78
e 47 53
e 48 72
e 48 57
e 48 54
e 49 79
e 49 73
e 49 68
e 49 65
e 49 64
e 49 61
e 49 57
e 49 54
e 50 79
e 50 76
e 50 72
e 50 65
e 50 64
e 50 61
e 50 60
e 50 57
e 50 55
e 50 53
e 51 80
e 51 77
e 51 74
e 51 71
e 52 79
e 52 76
e 52 68
e 52 64
e 52 54
e 52 53
e 53 75
e 53 71
e 53 69
e 53 63
e 53 56
e 54 74
e 54 70
e 54 67
e 54 59
e 54 58
e 55 77
e 55 75
e 55 69
e 55 58
e 56 76
e 56 73
e 56 72
e 56 68
e 56 61
e 57 74
e 57 71
e 57 67
e 58 79
e 58 78
e 58 76
e 58 66
e 58 60
e 59 78
e 59 73
e 59 68
e 59 65
e 59 64
e 59 60
e 60 77
e 60 74
e 60 71
e 60 70
e 60 67
e 60 63
e 60 62
e 62 72
e 62 68
e 62 66
e 63 79
e 63 78
e 63 76
e 63 73
e 63 68
e 63 66
e 64 77
e 64 70
e 64 69
e 65 80
e 65 77
e 65 75
e 65 71
e 65 67
e 66 69
e 67 79
e 67 72
e 67 68
e 68 75
e 69 79
e 69 76
e 69 73
e 69 72
e 71 79
e 71 78
e 71 76
e 71 72
e 72 77
e 73 80
e 75 79
e 76 77
e 77 78
e 78 80
